objective value:                                10724
t_x_0                                               1 	(obj:5)
t_x_7                                               1 	(obj:30)
t_x_11                                              1 	(obj:72)
t_x_13                                              1 	(obj:24)
t_x_15                                              1 	(obj:34)
t_x_17                                              1 	(obj:4)
t_x_19                                              1 	(obj:32)
t_x_20                                              1 	(obj:8)
t_x_23                                              1 	(obj:30)
t_x_24                                              1 	(obj:49)
t_x_26                                              1 	(obj:61)
t_x_30                                              1 	(obj:5)
t_x_31                                              1 	(obj:41)
t_x_33                                              1 	(obj:15)
t_x_34                                              1 	(obj:13)
t_x_35                                              1 	(obj:52)
t_x_39                                              1 	(obj:26)
t_x_40                                              1 	(obj:13)
t_x_42                                              1 	(obj:61)
t_x_43                                              1 	(obj:24)
t_x_44                                              1 	(obj:9)
t_x_45                                              1 	(obj:37)
t_x_46                                              1 	(obj:35)
t_x_47                                              1 	(obj:65)
t_x_50                                              1 	(obj:18)
t_x_53                                              1 	(obj:32)
t_x_55                                              1 	(obj:4)
t_x_58                                              1 	(obj:25)
t_x_60                                              1 	(obj:15)
t_x_62                                              1 	(obj:28)
t_x_66                                              1 	(obj:29)
t_x_68                                              1 	(obj:73)
t_x_71                                              1 	(obj:2)
t_x_80                                              1 	(obj:12)
t_x_81                                              1 	(obj:28)
t_x_83                                              1 	(obj:5)
t_x_84                                              1 	(obj:40)
t_x_93                                              1 	(obj:33)
t_x_95                                              1 	(obj:14)
t_x_100                                             1 	(obj:39)
t_x_105                                             1 	(obj:28)
t_x_108                                             1 	(obj:33)
t_x_113                                             1 	(obj:74)
t_x_114                                             1 	(obj:42)
t_x_119                                             1 	(obj:5)
t_x_120                                             1 	(obj:4)
t_x_121                                             1 	(obj:11)
t_x_127                                             1 	(obj:6)
t_x_129                                             1 	(obj:25)
t_x_132                                             1 	(obj:6)
t_x_134                                             1 	(obj:32)
t_x_136                                             1 	(obj:11)
t_x_137                                             1 	(obj:33)
t_x_138                                             1 	(obj:11)
t_x_139                                             1 	(obj:6)
t_x_151                                             1 	(obj:31)
t_x_157                                             1 	(obj:0)
t_x_159                                             1 	(obj:3)
t_x_161                                             1 	(obj:11)
t_x_163                                             1 	(obj:13)
t_x_167                                             1 	(obj:14)
t_x_168                                             1 	(obj:26)
t_x_172                                             1 	(obj:21)
t_x_175                                             1 	(obj:34)
t_x_178                                             1 	(obj:6)
t_x_179                                             1 	(obj:26)
t_x_182                                             1 	(obj:21)
t_x_184                                             1 	(obj:8)
t_x_187                                             1 	(obj:15)
t_x_188                                             1 	(obj:0)
t_x_193                                             1 	(obj:33)
t_x_197                                             1 	(obj:8)
t_x_199                                             1 	(obj:1)
t_x_205                                             1 	(obj:1)
t_x_213                                             1 	(obj:0)
t_x_215                                             1 	(obj:0)
t_x_220                                             1 	(obj:2)
t_x_222                                             1 	(obj:2)
t_x_225                                             1 	(obj:2)
t_x_228                                             1 	(obj:24)
t_x_230                                             1 	(obj:1)
t_x_232                                             1 	(obj:26)
t_x_234                                             1 	(obj:21)
t_x_237                                             1 	(obj:2)
t_x_242                                             1 	(obj:17)
t_x_250                                             1 	(obj:2)
t_x_252                                             1 	(obj:45)
t_x_262                                             1 	(obj:17)
t_x_264                                             1 	(obj:0)
t_x_266                                             1 	(obj:22)
t_x_268                                             1 	(obj:58)
t_x_273                                             1 	(obj:2)
t_x_277                                             1 	(obj:12)
t_x_279                                             1 	(obj:39)
t_x_296                                             1 	(obj:7)
t_x_299                                             1 	(obj:2)
t_x_303                                             1 	(obj:45)
t_x_304                                             1 	(obj:3)
t_x_312                                             1 	(obj:33)
t_x_316                                             1 	(obj:19)
t_x_329                                             1 	(obj:8)
t_x_331                                             1 	(obj:40)
t_x_332                                             1 	(obj:1)
t_x_344                                             1 	(obj:30)
t_x_345                                             1 	(obj:4)
t_x_349                                             1 	(obj:7)
t_x_359                                             1 	(obj:26)
t_x_365                                             1 	(obj:17)
t_x_369                                             1 	(obj:24)
t_x_374                                             1 	(obj:23)
t_x_378                                             1 	(obj:9)
t_x_380                                             1 	(obj:31)
t_x_381                                             1 	(obj:44)
t_x_383                                             1 	(obj:11)
t_x_385                                             1 	(obj:11)
t_x_397                                             1 	(obj:9)
t_x_398                                             1 	(obj:4)
t_x_405                                             1 	(obj:12)
t_x_408                                             1 	(obj:18)
t_x_416                                             1 	(obj:2)
t_x_418                                             1 	(obj:39)
t_x_425                                             1 	(obj:4)
t_x_431                                             1 	(obj:2)
t_x_436                                             1 	(obj:2)
t_x_440                                             1 	(obj:30)
t_x_441                                             1 	(obj:15)
t_x_443                                             1 	(obj:1)
t_x_445                                             1 	(obj:9)
t_x_449                                             1 	(obj:5)
t_x_451                                             1 	(obj:4)
t_x_457                                             1 	(obj:15)
t_x_459                                             1 	(obj:1)
t_x_463                                             1 	(obj:14)
t_x_464                                             1 	(obj:19)
t_x_469                                             1 	(obj:13)
t_x_475                                             1 	(obj:33)
t_x_476                                             1 	(obj:28)
t_x_478                                             1 	(obj:12)
t_x_480                                             1 	(obj:3)
t_x_484                                             1 	(obj:4)
t_x_489                                             1 	(obj:8)
t_x_494                                             1 	(obj:30)
t_x_496                                             1 	(obj:26)
t_x_499                                             1 	(obj:60)
t_x_500                                             1 	(obj:2)
t_x_504                                             1 	(obj:9)
t_x_506                                             1 	(obj:9)
t_x_515                                             1 	(obj:0)
t_x_518                                             1 	(obj:5)
t_x_528                                             1 	(obj:23)
t_x_530                                             1 	(obj:7)
t_x_531                                             1 	(obj:21)
t_x_532                                             1 	(obj:11)
t_x_534                                             1 	(obj:22)
t_x_536                                             1 	(obj:11)
t_x_539                                             1 	(obj:30)
t_x_540                                             1 	(obj:2)
t_x_542                                             1 	(obj:31)
t_x_544                                             1 	(obj:18)
t_x_547                                             1 	(obj:20)
t_x_552                                             1 	(obj:10)
t_x_554                                             1 	(obj:0)
t_x_559                                             1 	(obj:41)
t_x_560                                             1 	(obj:15)
t_x_561                                             1 	(obj:22)
t_x_564                                             1 	(obj:36)
t_x_566                                             1 	(obj:8)
t_x_567                                             1 	(obj:3)
t_x_574                                             1 	(obj:18)
t_x_579                                             1 	(obj:29)
t_x_582                                             1 	(obj:0)
t_x_588                                             1 	(obj:9)
t_x_590                                             1 	(obj:26)
t_x_593                                             1 	(obj:1)
t_x_595                                             1 	(obj:22)
t_x_598                                             1 	(obj:20)
t_x_600                                             1 	(obj:45)
t_x_602                                             1 	(obj:2)
t_x_606                                             1 	(obj:4)
t_x_608                                             1 	(obj:19)
t_x_609                                             1 	(obj:62)
t_x_611                                             1 	(obj:23)
t_x_613                                             1 	(obj:7)
t_x_618                                             1 	(obj:12)
t_x_619                                             1 	(obj:26)
t_x_624                                             1 	(obj:30)
t_x_628                                             1 	(obj:1)
t_x_631                                             1 	(obj:3)
t_x_635                                             1 	(obj:1)
t_x_638                                             1 	(obj:42)
t_x_641                                             1 	(obj:10)
t_x_644                                             1 	(obj:81)
t_x_646                                             1 	(obj:11)
t_x_651                                             1 	(obj:39)
t_x_653                                             1 	(obj:41)
t_x_656                                             1 	(obj:2)
t_x_660                                             1 	(obj:17)
t_x_662                                             1 	(obj:12)
t_x_668                                             1 	(obj:17)
t_x_671                                             1 	(obj:17)
t_x_672                                             1 	(obj:5)
t_x_681                                             1 	(obj:5)
t_x_685                                             1 	(obj:27)
t_x_689                                             1 	(obj:22)
t_x_691                                             1 	(obj:17)
t_x_694                                             1 	(obj:34)
t_x_698                                             1 	(obj:6)
t_x_699                                             1 	(obj:7)
t_x_706                                             1 	(obj:16)
t_x_707                                             1 	(obj:34)
t_x_711                                             1 	(obj:18)
t_x_712                                             1 	(obj:30)
t_x_715                                             1 	(obj:30)
t_x_717                                             1 	(obj:50)
t_x_721                                             1 	(obj:37)
t_x_722                                             1 	(obj:24)
t_x_724                                             1 	(obj:48)
t_x_727                                             1 	(obj:12)
t_x_729                                             1 	(obj:15)
t_x_732                                             1 	(obj:7)
t_x_735                                             1 	(obj:39)
t_x_736                                             1 	(obj:11)
t_x_740                                             1 	(obj:47)
t_x_741                                             1 	(obj:27)
t_x_751                                             1 	(obj:14)
t_x_760                                             1 	(obj:4)
t_x_762                                             1 	(obj:12)
t_x_763                                             1 	(obj:11)
t_x_769                                             1 	(obj:13)
t_x_771                                             1 	(obj:59)
t_x_774                                             1 	(obj:42)
t_x_775                                             1 	(obj:24)
t_x_776                                             1 	(obj:1)
t_x_777                                             1 	(obj:6)
t_x_779                                             1 	(obj:16)
t_x_780                                             1 	(obj:12)
t_x_782                                             1 	(obj:3)
t_x_789                                             1 	(obj:2)
t_x_791                                             1 	(obj:24)
t_x_793                                             1 	(obj:21)
t_x_797                                             1 	(obj:4)
t_x_798                                             1 	(obj:31)
t_x_800                                             1 	(obj:17)
t_x_803                                             1 	(obj:13)
t_x_807                                             1 	(obj:9)
t_x_808                                             1 	(obj:13)
t_x_817                                             1 	(obj:26)
t_x_818                                             1 	(obj:41)
t_x_821                                             1 	(obj:0)
t_x_829                                             1 	(obj:4)
t_x_835                                             1 	(obj:16)
t_x_842                                             1 	(obj:18)
t_x_846                                             1 	(obj:0)
t_x_851                                             1 	(obj:19)
t_x_852                                             1 	(obj:0)
t_x_853                                             1 	(obj:28)
t_x_857                                             1 	(obj:20)
t_x_860                                             1 	(obj:20)
t_x_868                                             1 	(obj:6)
t_x_869                                             1 	(obj:39)
t_x_874                                             1 	(obj:34)
t_x_875                                             1 	(obj:34)
t_x_876                                             1 	(obj:7)
t_x_878                                             1 	(obj:20)
t_x_879                                             1 	(obj:9)
t_x_882                                             1 	(obj:20)
t_x_887                                             1 	(obj:25)
t_x_888                                             1 	(obj:6)
t_x_894                                             1 	(obj:11)
t_x_895                                             1 	(obj:2)
t_x_897                                             1 	(obj:13)
t_x_899                                             1 	(obj:22)
t_x_903                                             1 	(obj:28)
t_x_904                                             1 	(obj:23)
t_x_907                                             1 	(obj:17)
t_x_909                                             1 	(obj:10)
t_x_912                                             1 	(obj:2)
t_x_916                                             1 	(obj:13)
t_x_917                                             1 	(obj:16)
t_x_918                                             1 	(obj:11)
t_x_920                                             1 	(obj:17)
t_x_926                                             1 	(obj:18)
t_x_932                                             1 	(obj:43)
t_x_934                                             1 	(obj:0)
t_x_935                                             1 	(obj:17)
t_x_941                                             1 	(obj:0)
t_x_946                                             1 	(obj:0)
t_x_947                                             1 	(obj:4)
t_x_962                                             1 	(obj:39)
t_x_964                                             1 	(obj:33)
t_x_966                                             1 	(obj:16)
t_x_967                                             1 	(obj:19)
t_x_968                                             1 	(obj:3)
t_x_977                                             1 	(obj:20)
t_x_987                                             1 	(obj:17)
t_x_988                                             1 	(obj:13)
t_x_1000                                            1 	(obj:36)
t_x_1004                                            1 	(obj:29)
t_x_1006                                            1 	(obj:7)
t_x_1007                                            1 	(obj:87)
t_x_1013                                            1 	(obj:25)
t_x_1035                                            1 	(obj:20)
t_x_1039                                            1 	(obj:10)
t_x_1042                                            1 	(obj:2)
t_x_1043                                            1 	(obj:22)
t_x_1046                                            1 	(obj:20)
t_x_1047                                            1 	(obj:20)
t_x_1051                                            1 	(obj:10)
t_x_1053                                            1 	(obj:1)
t_x_1057                                            1 	(obj:13)
t_x_1060                                            1 	(obj:10)
t_x_1065                                            1 	(obj:13)
t_x_1070                                            1 	(obj:4)
t_x_1074                                            1 	(obj:2)
t_x_1075                                            1 	(obj:7)
t_x_1080                                            1 	(obj:13)
t_x_1084                                            1 	(obj:1)
t_x_1085                                            1 	(obj:18)
t_x_1092                                            1 	(obj:10)
t_x_1095                                            1 	(obj:18)
t_x_1100                                            1 	(obj:0)
t_x_1105                                            1 	(obj:14)
t_x_1109                                            1 	(obj:1)
t_x_1112                                            1 	(obj:0)
t_x_1113                                            1 	(obj:16)
t_x_1114                                            1 	(obj:27)
t_x_1115                                            1 	(obj:24)
t_x_1120                                            1 	(obj:25)
t_x_1121                                            1 	(obj:11)
t_x_1127                                            1 	(obj:0)
t_x_1134                                            1 	(obj:39)
t_x_1136                                            1 	(obj:30)
t_x_1139                                            1 	(obj:62)
t_x_1142                                            1 	(obj:41)
t_x_1143                                            1 	(obj:20)
t_x_1144                                            1 	(obj:18)
t_x_1145                                            1 	(obj:59)
t_x_1150                                            1 	(obj:38)
t_x_1154                                            1 	(obj:19)
t_x_1155                                            1 	(obj:3)
t_x_1158                                            1 	(obj:11)
t_x_1159                                            1 	(obj:21)
t_x_1160                                            1 	(obj:24)
t_x_1164                                            1 	(obj:24)
t_x_1166                                            1 	(obj:13)
t_x_1170                                            1 	(obj:33)
t_x_1171                                            1 	(obj:6)
t_x_1178                                            1 	(obj:37)
t_x_1179                                            1 	(obj:3)
t_x_1180                                            1 	(obj:13)
t_x_1182                                            1 	(obj:1)
t_x_1184                                            1 	(obj:16)
t_x_1189                                            1 	(obj:3)
t_x_1193                                            1 	(obj:21)
t_x_1198                                            1 	(obj:47)
t_x_1199                                            1 	(obj:18)
t_x_1202                                            1 	(obj:1)
t_x_1204                                            1 	(obj:22)
t_x_1206                                            1 	(obj:15)
t_x_1210                                            1 	(obj:0)
t_x_1212                                            1 	(obj:1)
t_x_1213                                            1 	(obj:12)
t_x_1214                                            1 	(obj:31)
t_x_1215                                            1 	(obj:11)
t_x_1221                                            1 	(obj:28)
t_x_1222                                            1 	(obj:1)
t_x_1223                                            1 	(obj:15)
t_x_1226                                            1 	(obj:17)
t_x_1228                                            1 	(obj:18)
t_x_1229                                            1 	(obj:27)
t_x_1234                                            1 	(obj:6)
t_x_1239                                            1 	(obj:5)
t_x_1240                                            1 	(obj:39)
t_x_1241                                            1 	(obj:51)
t_x_1242                                            1 	(obj:7)
t_x_1244                                            1 	(obj:52)
t_x_1257                                            1 	(obj:8)
t_x_1259                                            1 	(obj:19)
t_x_1263                                            1 	(obj:62)
t_x_1269                                            1 	(obj:15)
t_x_1274                                            1 	(obj:7)
t_x_1285                                            1 	(obj:11)
t_x_1286                                            1 	(obj:26)
t_x_1291                                            1 	(obj:37)
t_x_1292                                            1 	(obj:4)
t_x_1301                                            1 	(obj:4)
t_x_1302                                            1 	(obj:6)
t_x_1305                                            1 	(obj:23)
t_x_1306                                            1 	(obj:45)
t_x_1316                                            1 	(obj:5)
t_x_1318                                            1 	(obj:24)
t_x_1319                                            1 	(obj:10)
t_x_1321                                            1 	(obj:46)
t_x_1323                                            1 	(obj:9)
t_x_1324                                            1 	(obj:3)
t_x_1325                                            1 	(obj:0)
t_x_1334                                            1 	(obj:11)
t_x_1335                                            1 	(obj:36)
t_x_1341                                            1 	(obj:37)
t_x_1342                                            1 	(obj:6)
t_x_1344                                            1 	(obj:4)
t_x_1350                                            1 	(obj:11)
t_x_1365                                            1 	(obj:55)
t_x_1367                                            1 	(obj:6)
t_x_1369                                            1 	(obj:11)
t_x_1373                                            1 	(obj:51)
t_x_1377                                            1 	(obj:73)
t_x_1379                                            1 	(obj:20)
t_x_1380                                            1 	(obj:30)
t_x_1392                                            1 	(obj:47)
t_x_1395                                            1 	(obj:26)
t_x_1397                                            1 	(obj:9)
t_x_1403                                            1 	(obj:0)
t_x_1408                                            1 	(obj:28)
t_x_1415                                            1 	(obj:4)
t_x_1417                                            1 	(obj:11)
t_x_1418                                            1 	(obj:25)
t_x_1419                                            1 	(obj:7)
t_x_1421                                            1 	(obj:22)
t_x_1424                                            1 	(obj:1)
t_x_1426                                            1 	(obj:1)
t_x_1428                                            1 	(obj:31)
t_x_1437                                            1 	(obj:15)
t_x_1440                                            1 	(obj:21)
t_x_1442                                            1 	(obj:50)
t_x_1443                                            1 	(obj:18)
t_x_1444                                            1 	(obj:14)
t_x_1448                                            1 	(obj:2)
t_x_1450                                            1 	(obj:29)
t_x_1453                                            1 	(obj:11)
t_x_1454                                            1 	(obj:2)
t_x_1455                                            1 	(obj:42)
t_x_1457                                            1 	(obj:0)
t_x_1459                                            1 	(obj:5)
t_x_1463                                            1 	(obj:13)
t_x_1468                                            1 	(obj:26)
t_x_1470                                            1 	(obj:35)
t_x_1472                                            1 	(obj:47)
t_x_1474                                            1 	(obj:2)
t_x_1475                                            1 	(obj:23)
t_x_1479                                            1 	(obj:22)
t_x_1481                                            1 	(obj:16)
t_x_1486                                            1 	(obj:0)
t_x_1495                                            1 	(obj:9)
t_x_1508                                            1 	(obj:14)
t_x_1511                                            1 	(obj:81)
t_x_1514                                            1 	(obj:0)
t_x_1516                                            1 	(obj:17)
t_x_1523                                            1 	(obj:25)
t_x_1525                                            1 	(obj:8)
t_x_1527                                            1 	(obj:14)
t_x_1533                                            1 	(obj:35)
t_x_1539                                            1 	(obj:26)
t_x_1549                                            1 	(obj:1)
t_x_1550                                            1 	(obj:27)
t_x_1551                                            1 	(obj:64)
t_x_1559                                            1 	(obj:23)
t_x_1564                                            1 	(obj:29)
t_x_1566                                            1 	(obj:20)
t_x_1574                                            1 	(obj:30)
t_x_1575                                            1 	(obj:20)
t_x_1576                                            1 	(obj:6)
t_x_1579                                            1 	(obj:57)
t_x_1584                                            1 	(obj:10)
t_x_1586                                            1 	(obj:1)
t_x_1599                                            1 	(obj:2)
t_x_1607                                            1 	(obj:12)
t_x_1614                                            1 	(obj:20)
t_x_1615                                            1 	(obj:5)
t_x_1616                                            1 	(obj:10)
t_x_1618                                            1 	(obj:19)
t_x_1620                                            1 	(obj:1)
t_x_1625                                            1 	(obj:9)
t_x_1626                                            1 	(obj:33)
t_x_1629                                            1 	(obj:12)
t_x_1631                                            1 	(obj:8)
t_x_1632                                            1 	(obj:13)
t_x_1640                                            1 	(obj:9)
t_x_1644                                            1 	(obj:4)
t_x_1659                                            1 	(obj:17)
t_x_1660                                            1 	(obj:50)
t_x_1665                                            1 	(obj:5)
t_x_1666                                            1 	(obj:23)
t_x_1668                                            1 	(obj:6)
t_x_1676                                            1 	(obj:19)
t_x_1677                                            1 	(obj:12)
t_x_1680                                            1 	(obj:2)
t_x_1681                                            1 	(obj:53)
t_x_1684                                            1 	(obj:32)
t_x_1693                                            1 	(obj:29)
t_x_1696                                            1 	(obj:0)
t_x_1698                                            1 	(obj:1)
t_x_1706                                            1 	(obj:72)
t_x_1714                                            1 	(obj:11)
t_x_1718                                            1 	(obj:20)
t_x_1723                                            1 	(obj:9)
t_x_1727                                            1 	(obj:0)
t_x_1728                                            1 	(obj:1)
t_x_1730                                            1 	(obj:0)
t_x_1733                                            1 	(obj:59)
t_x_1735                                            1 	(obj:7)
t_x_1751                                            1 	(obj:21)
t_x_1753                                            1 	(obj:37)
t_x_1755                                            1 	(obj:4)
t_x_1766                                            1 	(obj:11)
t_x_1768                                            1 	(obj:1)
t_x_1771                                            1 	(obj:41)
t_x_1776                                            1 	(obj:14)
t_x_1783                                            1 	(obj:11)
t_x_1785                                            1 	(obj:53)
t_x_1789                                            1 	(obj:0)
t_x_1790                                            1 	(obj:7)
t_x_1793                                            1 	(obj:37)
t_x_1798                                            1 	(obj:22)
t_x_1800                                            1 	(obj:22)
t_x_1808                                            1 	(obj:18)
t_x_1809                                            1 	(obj:23)
t_x_1811                                            1 	(obj:11)
t_x_1813                                            1 	(obj:4)
t_x_1814                                            1 	(obj:9)
t_x_1817                                            1 	(obj:10)
t_x_1818                                            1 	(obj:2)
t_x_1821                                            1 	(obj:8)
t_x_1822                                            1 	(obj:22)
t_x_1825                                            1 	(obj:15)
t_x_1829                                            1 	(obj:20)
t_x_1836                                            1 	(obj:15)
t_x_1837                                            1 	(obj:11)
t_x_1840                                            1 	(obj:13)
t_x_1841                                            1 	(obj:10)
t_x_1848                                            1 	(obj:17)
t_x_1855                                            1 	(obj:25)
t_x_1856                                            1 	(obj:3)
t_x_1857                                            1 	(obj:1)
t_x_1860                                            1 	(obj:8)
t_x_1862                                            1 	(obj:31)
t_x_1863                                            1 	(obj:8)
t_x_1864                                            1 	(obj:0)
t_x_1883                                            1 	(obj:28)
t_x_1886                                            1 	(obj:44)
t_x_1887                                            1 	(obj:8)
t_x_1890                                            1 	(obj:19)
t_x_1893                                            1 	(obj:0)
t_x_1901                                            1 	(obj:3)
t_x_1903                                            1 	(obj:40)
t_x_1904                                            1 	(obj:18)
t_x_1905                                            1 	(obj:8)
t_x_1911                                            1 	(obj:16)
t_x_1914                                            1 	(obj:32)
t_x_1916                                            1 	(obj:5)
t_x_1918                                            1 	(obj:6)
t_x_1920                                            1 	(obj:1)
t_x_1928                                            1 	(obj:34)
t_x_1933                                            1 	(obj:18)
t_x_1934                                            1 	(obj:4)
t_x_1935                                            1 	(obj:6)
t_x_1944                                            1 	(obj:18)
t_x_1946                                            1 	(obj:6)
t_x_1947                                            1 	(obj:1)
t_x_1951                                            1 	(obj:7)
t_x_1953                                            1 	(obj:49)
t_x_1959                                            1 	(obj:8)
t_x_1960                                            1 	(obj:26)
t_x_1969                                            1 	(obj:14)
t_x_1974                                            1 	(obj:16)
t_x_1975                                            1 	(obj:41)
t_x_1976                                            1 	(obj:38)
t_x_1978                                            1 	(obj:8)
t_x_1980                                            1 	(obj:7)
t_x_1984                                            1 	(obj:16)
t_x_1986                                            1 	(obj:34)
t_x_1990                                            1 	(obj:9)
t_x_1991                                            1 	(obj:31)
t_x_1992                                            1 	(obj:0)
t_x_1997                                            1 	(obj:3)
t_x_1999                                            1 	(obj:25)
